
        $ From http://www.csplib.org/Problems/prob009/data/helmut.pdf
        $ Problem number 134
        $ Sequence length : 25
        language ESSENCE' 1.0
        letting sizemaster be 416
        letting sizes be sequence(1,2,3,8,12,15,16,17,20,22,24,26,29,31,64,75,85,88,91,94,98,104,133,179,237)
        